z3-noodler/21382.txt
;; universe for var1098:
  ;;   var1098!val!1 var1098!val!0 
  ;; -----------
  ;; definitions for universe elements:
  (declare-fun var1098!val!1 () var1098)
  (declare-fun var1098!val!0 () var1098)
  ;; cardinality constraint:
  (forall ((x var1098)) (or (= x var1098!val!1) (= x var1098!val!0)))
  ;; -----------
  ;; universe for var2080:
  ;;   var2080!val!1 var2080!val!0 
  ;; -----------
  ;; definitions for universe elements:
  (declare-fun var2080!val!1 () var2080)
  (declare-fun var2080!val!0 () var2080)
  ;; cardinality constraint:
  (forall ((x var2080)) (or (= x var2080!val!1) (= x var2080!val!0)))
  ;; -----------
  ;; universe for var3002:
  ;;   var3002!val!0 var3002!val!1 
  ;; -----------
  ;; definitions for universe elements:
  (declare-fun var3002!val!0 () var3002)
  (declare-fun var3002!val!1 () var3002)
  ;; cardinality constraint:
  (forall ((x var3002)) (or (= x var3002!val!0) (= x var3002!val!1)))
  ;; -----------
  ;; universe for var3010:
  ;;   var3010!val!0 
  ;; -----------
  ;; definitions for universe elements:
  (declare-fun var3010!val!0 () var3010)
  ;; cardinality constraint:
  (forall ((x var3010)) (= x var3010!val!0))
  ;; -----------
  (define-fun var2585 () Bool
    (var2080_containsKey/1421819118 var3981 (cast-from-var3002-to-var3010 var2772)))
  (define-fun var1889 () var1098
    var1098!val!0)
  (define-fun null-var1098 () var1098
    var1098!val!1)
  (define-fun var2772 () var3002
    var3002!val!0)
  (define-fun null-var2080 () var2080
    var2080!val!1)
  (define-fun var1986 () Float64
    (_ +zero 11 53))
  (define-fun var1276 () Int
    (let ((a!1 (ite (< (num_splits (getPhrase/-292787131 var2772) "\s+") (- 1))
                (num_splits (getPhrase/-292787131 var2772) "\s+")
                (- 1))))
  (ite (> (- 1) 0) a!1 (num_splits (getPhrase/-292787131 var2772) "\s+"))))
  (define-fun null-var3002 () var3002
    var3002!val!1)
  (define-fun null-Float64 () Float64
    (fp #b0 #b00000000000 #x0000000000001))
  (define-fun var1172 () String
    (getPhrase/-292787131 var2772))
  (define-fun var3981 () var2080
    var2080!val!0)
  (define-fun var2080_containsKey/1421819118 ((x!0 var2080) (x!1 var3010)) Bool
    false)
  (define-fun getPhrase/-292787131 ((x!0 var3002)) String
    "\u{0}")
  (define-fun cast-from-var3002-to-var3010 ((x!0 var3002)) var3010
    var3010!val!0)